letting n =  10
letting blocks =  [[1, 6], [1, 8], [2, 5], [2, 8], [3, 2], [3, 4], [4, 4], [4, 7], [4, 9], [4, 10], [5, 1], [5, 7], [6, 7], [6, 9], [7, 5], [7, 9], [8, 4], [8, 6], [9, 1], [9, 3], [9, 7], [9, 10], [10, 1], [10, 3]]
